sat
(
(define-fun J () String "aabbabb")
(define-fun I () String "")
(define-fun H () String "")
(define-fun L () String "")
(define-fun N () String "")
(define-fun O () String "aabbabbaaaabbabbaabbabbaabbabbaaaabbabbbbaabbaa")
(define-fun M () String "")
(define-fun P () String "")
)
